p edge 3392 3317
e 1 2
e 1 3
e 1 4
e 1 5
e 1 6
e 1 7
e 1 8
e 1 9
e 1 10
e 1 11
e 1 12
e 1 13
e 1 14
e 1 15
e 1 16
e 17 18
e 17 19
e 17 20
e 17 21
e 17 22
e 17 23
e 17 24
e 17 25
e 17 26
e 17 27
e 17 28
e 17 29
e 17 30
e 17 31
e 17 32
e 17 33
e 17 34
e 17 35
e 17 36
e 17 37
e 17 38
e 17 39
e 17 40
e 17 41
e 17 42
e 17 43
e 17 44
e 17 45
e 17 46
e 17 47
e 17 48
e 17 49
e 17 50
e 17 51
e 17 52
e 17 53
e 17 54
e 17 55
e 17 56
e 17 57
e 17 58
e 17 59
e 17 60
e 17 61
e 17 62
e 17 63
e 17 64
e 17 65
e 17 66
e 17 67
e 17 68
e 17 69
e 17 70
e 17 71
e 17 72
e 17 73
e 17 74
e 17 75
e 17 76
e 17 77
e 17 78
e 17 79
e 17 80
e 17 81
e 17 82
e 17 83
e 17 84
e 17 85
e 17 86
e 87 88
e 87 89
e 87 90
e 87 91
e 87 92
e 87 93
e 87 94
e 87 95
e 87 96
e 87 97
e 87 98
e 87 99
e 87 100
e 87 101
e 87 102
e 87 103
e 87 104
e 87 105
e 87 106
e 87 107
e 87 108
e 87 109
e 87 110
e 87 111
e 87 112
e 87 113
e 87 114
e 87 115
e 87 116
e 87 117
e 87 118
e 87 119
e 87 120
e 87 121
e 87 122
e 87 123
e 87 124
e 87 125
e 87 126
e 87 127
e 87 128
e 87 129
e 87 130
e 131 132
e 131 133
e 131 134
e 131 135
e 131 136
e 131 137
e 131 138
e 131 139
e 131 140
e 131 141
e 131 142
e 143 144
e 143 145
e 143 146
e 143 147
e 143 148
e 143 149
e 143 150
e 143 151
e 143 152
e 143 153
e 143 154
e 143 155
e 143 156
e 143 157
e 143 158
e 143 159
e 143 160
e 161 162
e 161 163
e 161 164
e 161 165
e 161 166
e 161 167
e 161 168
e 161 169
e 161 170
e 161 171
e 161 172
e 161 173
e 161 174
e 161 175
e 161 176
e 161 177
e 161 178
e 161 179
e 180 181
e 180 182
e 180 183
e 180 184
e 180 185
e 180 186
e 180 187
e 180 188
e 180 189
e 180 190
e 180 191
e 180 192
e 180 193
e 180 194
e 180 195
e 180 196
e 180 197
e 180 198
e 180 199
e 180 200
e 180 201
e 180 202
e 180 203
e 180 204
e 180 205
e 180 206
e 180 207
e 180 208
e 180 209
e 180 210
e 180 211
e 180 212
e 180 213
e 180 214
e 180 215
e 216 217
e 216 218
e 216 219
e 216 220
e 216 221
e 216 222
e 216 223
e 216 224
e 216 225
e 216 226
e 216 227
e 216 228
e 216 229
e 216 230
e 216 231
e 216 232
e 216 233
e 216 234
e 216 235
e 216 236
e 216 237
e 216 238
e 216 239
e 216 240
e 216 241
e 216 242
e 216 243
e 216 244
e 216 245
e 216 246
e 216 247
e 216 248
e 216 249
e 216 250
e 216 251
e 216 252
e 216 253
e 216 254
e 216 255
e 216 256
e 216 257
e 216 258
e 216 259
e 216 260
e 216 261
e 216 262
e 216 263
e 216 264
e 216 265
e 216 266
e 216 267
e 216 268
e 216 269
e 216 270
e 216 271
e 272 273
e 272 274
e 272 275
e 272 276
e 272 277
e 272 278
e 272 279
e 272 280
e 272 281
e 272 282
e 272 283
e 272 284
e 272 285
e 272 286
e 272 287
e 272 288
e 272 289
e 272 290
e 272 291
e 272 292
e 272 293
e 272 294
e 272 295
e 272 296
e 272 297
e 272 298
e 272 299
e 272 300
e 272 301
e 272 302
e 272 303
e 272 304
e 272 305
e 272 306
e 272 307
e 272 308
e 272 309
e 272 310
e 272 311
e 272 312
e 272 313
e 272 314
e 272 315
e 272 316
e 272 317
e 272 318
e 272 319
e 272 320
e 272 321
e 272 322
e 272 323
e 272 324
e 272 325
e 272 326
e 272 327
e 272 328
e 272 329
e 272 330
e 272 331
e 272 332
e 272 333
e 272 334
e 272 335
e 272 336
e 272 337
e 272 338
e 272 339
e 272 340
e 272 341
e 272 342
e 272 343
e 272 344
e 272 345
e 272 346
e 272 347
e 272 348
e 272 349
e 272 350
e 272 351
e 352 353
e 352 354
e 352 355
e 352 356
e 352 357
e 352 358
e 352 359
e 352 360
e 352 361
e 352 362
e 352 363
e 352 364
e 352 365
e 352 366
e 352 367
e 352 368
e 352 369
e 352 370
e 352 371
e 352 372
e 352 373
e 352 374
e 352 375
e 352 376
e 352 377
e 352 378
e 352 379
e 352 380
e 352 381
e 352 382
e 352 383
e 352 384
e 352 385
e 352 386
e 352 387
e 352 388
e 352 389
e 352 390
e 352 391
e 352 392
e 352 393
e 352 394
e 352 395
e 352 396
e 352 397
e 352 398
e 352 399
e 352 400
e 352 401
e 352 402
e 352 403
e 352 404
e 352 405
e 352 406
e 352 407
e 352 408
e 352 409
e 352 410
e 352 411
e 352 412
e 352 413
e 352 414
e 352 415
e 352 416
e 352 417
e 418 419
e 418 420
e 418 421
e 418 422
e 418 423
e 418 424
e 418 425
e 418 426
e 418 427
e 418 428
e 418 429
e 418 430
e 418 431
e 418 432
e 418 433
e 434 435
e 434 436
e 434 437
e 434 438
e 434 439
e 434 440
e 434 441
e 434 442
e 434 443
e 434 444
e 434 445
e 434 446
e 434 447
e 434 448
e 434 449
e 434 450
e 434 451
e 434 452
e 434 453
e 434 454
e 434 455
e 434 456
e 434 457
e 434 458
e 434 459
e 434 460
e 434 461
e 434 462
e 434 463
e 434 464
e 434 465
e 434 466
e 434 467
e 434 468
e 434 469
e 434 470
e 434 471
e 434 472
e 434 473
e 434 474
e 434 475
e 434 476
e 434 477
e 434 478
e 434 479
e 434 480
e 434 481
e 434 482
e 434 483
e 434 484
e 434 485
e 434 486
e 434 487
e 434 488
e 489 490
e 489 491
e 489 492
e 489 493
e 489 494
e 489 495
e 489 496
e 489 497
e 489 498
e 489 499
e 489 500
e 489 501
e 489 502
e 489 503
e 489 504
e 489 505
e 489 506
e 489 507
e 489 508
e 489 509
e 489 510
e 489 511
e 489 512
e 489 513
e 489 514
e 489 515
e 489 516
e 489 517
e 489 518
e 489 519
e 489 520
e 489 521
e 489 522
e 489 523
e 489 524
e 489 525
e 489 526
e 489 527
e 489 528
e 489 529
e 489 530
e 489 531
e 489 532
e 489 533
e 489 534
e 489 535
e 489 536
e 489 537
e 489 538
e 489 539
e 489 540
e 489 541
e 489 542
e 489 543
e 489 544
e 489 545
e 489 546
e 489 547
e 489 548
e 489 549
e 489 550
e 489 551
e 489 552
e 489 553
e 489 554
e 489 555
e 489 556
e 489 557
e 558 559
e 558 560
e 558 561
e 558 562
e 558 563
e 558 564
e 558 565
e 558 566
e 558 567
e 558 568
e 558 569
e 558 570
e 558 571
e 558 572
e 558 573
e 558 574
e 558 575
e 558 576
e 558 577
e 558 578
e 558 579
e 558 580
e 558 581
e 558 582
e 558 583
e 558 584
e 558 585
e 558 586
e 558 587
e 558 588
e 558 589
e 558 590
e 558 591
e 558 592
e 558 593
e 558 594
e 558 595
e 558 596
e 558 597
e 558 598
e 558 599
e 558 600
e 558 601
e 558 602
e 558 603
e 558 604
e 558 605
e 558 606
e 558 607
e 558 608
e 558 609
e 558 610
e 558 611
e 558 612
e 558 613
e 558 614
e 558 615
e 558 616
e 558 617
e 558 618
e 558 619
e 558 620
e 558 621
e 558 622
e 558 623
e 558 624
e 558 625
e 558 626
e 558 627
e 558 628
e 558 629
e 558 630
e 558 631
e 558 632
e 558 633
e 634 635
e 634 636
e 634 637
e 634 638
e 634 639
e 634 640
e 634 641
e 634 642
e 634 643
e 634 644
e 634 645
e 634 646
e 634 647
e 634 648
e 634 649
e 634 650
e 634 651
e 634 652
e 634 653
e 634 654
e 634 655
e 634 656
e 634 657
e 634 658
e 634 659
e 634 660
e 634 661
e 634 662
e 634 663
e 634 664
e 634 665
e 666 667
e 666 668
e 666 669
e 666 670
e 666 671
e 666 672
e 666 673
e 666 674
e 666 675
e 666 676
e 666 677
e 666 678
e 666 679
e 666 680
e 666 681
e 666 682
e 666 683
e 666 684
e 666 685
e 666 686
e 666 687
e 666 688
e 666 689
e 666 690
e 666 691
e 666 692
e 693 694
e 693 695
e 693 696
e 693 697
e 693 698
e 693 699
e 693 700
e 693 701
e 693 702
e 693 703
e 693 704
e 693 705
e 693 706
e 693 707
e 693 708
e 693 709
e 693 710
e 693 711
e 693 712
e 693 713
e 693 714
e 693 715
e 693 716
e 693 717
e 693 718
e 693 719
e 693 720
e 721 722
e 721 723
e 721 724
e 721 725
e 721 726
e 721 727
e 721 728
e 721 729
e 721 730
e 721 731
e 721 732
e 721 733
e 721 734
e 721 735
e 721 736
e 721 737
e 721 738
e 721 739
e 721 740
e 721 741
e 721 742
e 721 743
e 721 744
e 721 745
e 721 746
e 721 747
e 721 748
e 721 749
e 721 750
e 721 751
e 721 752
e 721 753
e 721 754
e 721 755
e 721 756
e 721 757
e 721 758
e 721 759
e 721 760
e 721 761
e 721 762
e 721 763
e 721 764
e 721 765
e 721 766
e 721 767
e 721 768
e 721 769
e 721 770
e 721 771
e 721 772
e 721 773
e 721 774
e 721 775
e 721 776
e 721 777
e 721 778
e 721 779
e 721 780
e 721 781
e 721 782
e 721 783
e 721 784
e 721 785
e 721 786
e 721 787
e 721 788
e 721 789
e 721 790
e 721 791
e 721 792
e 721 793
e 721 794
e 721 795
e 796 797
e 796 798
e 796 799
e 796 800
e 796 801
e 796 802
e 796 803
e 796 804
e 796 805
e 796 806
e 796 807
e 796 808
e 796 809
e 796 810
e 796 811
e 796 812
e 796 813
e 796 814
e 796 815
e 796 816
e 796 817
e 796 818
e 796 819
e 796 820
e 796 821
e 796 822
e 796 823
e 796 824
e 796 825
e 796 826
e 796 827
e 796 828
e 796 829
e 796 830
e 796 831
e 796 832
e 796 833
e 796 834
e 796 835
e 796 836
e 796 837
e 796 838
e 796 839
e 796 840
e 796 841
e 796 842
e 796 843
e 796 844
e 796 845
e 796 846
e 847 848
e 847 849
e 847 850
e 847 851
e 847 852
e 847 853
e 847 854
e 847 855
e 847 856
e 847 857
e 847 858
e 847 859
e 847 860
e 847 861
e 847 862
e 847 863
e 847 864
e 847 865
e 847 866
e 847 867
e 847 868
e 847 869
e 847 870
e 847 871
e 847 872
e 847 873
e 847 874
e 847 875
e 847 876
e 847 877
e 847 878
e 847 879
e 847 880
e 847 881
e 847 882
e 847 883
e 847 884
e 847 885
e 847 886
e 847 887
e 847 888
e 847 889
e 847 890
e 847 891
e 847 892
e 847 893
e 847 894
e 847 895
e 847 896
e 847 897
e 847 898
e 847 899
e 847 900
e 847 901
e 847 902
e 847 903
e 847 904
e 847 905
e 847 906
e 847 907
e 847 908
e 847 909
e 847 910
e 847 911
e 847 912
e 847 913
e 847 914
e 847 915
e 916 917
e 916 918
e 916 919
e 916 920
e 916 921
e 916 922
e 916 923
e 916 924
e 916 925
e 916 926
e 916 927
e 916 928
e 916 929
e 916 930
e 916 931
e 916 932
e 916 933
e 916 934
e 916 935
e 916 936
e 916 937
e 916 938
e 916 939
e 916 940
e 916 941
e 916 942
e 916 943
e 916 944
e 916 945
e 916 946
e 916 947
e 916 948
e 916 949
e 916 950
e 916 951
e 916 952
e 916 953
e 916 954
e 916 955
e 916 956
e 916 957
e 916 958
e 916 959
e 916 960
e 916 961
e 916 962
e 916 963
e 916 964
e 916 965
e 916 966
e 916 967
e 916 968
e 916 969
e 916 970
e 971 972
e 971 973
e 971 974
e 971 975
e 971 976
e 971 977
e 971 978
e 971 979
e 971 980
e 971 981
e 971 982
e 971 983
e 971 984
e 971 985
e 971 986
e 971 987
e 971 988
e 971 989
e 971 990
e 971 991
e 971 992
e 971 993
e 971 994
e 971 995
e 971 996
e 971 997
e 971 998
e 971 999
e 971 1000
e 971 1001
e 971 1002
e 971 1003
e 971 1004
e 971 1005
e 971 1006
e 971 1007
e 971 1008
e 971 1009
e 971 1010
e 971 1011
e 971 1012
e 971 1013
e 971 1014
e 971 1015
e 971 1016
e 971 1017
e 971 1018
e 971 1019
e 971 1020
e 971 1021
e 971 1022
e 971 1023
e 971 1024
e 971 1025
e 971 1026
e 971 1027
e 971 1028
e 971 1029
e 971 1030
e 971 1031
e 971 1032
e 971 1033
e 971 1034
e 971 1035
e 971 1036
e 971 1037
e 971 1038
e 971 1039
e 1040 1041
e 1040 1042
e 1040 1043
e 1040 1044
e 1040 1045
e 1040 1046
e 1040 1047
e 1040 1048
e 1040 1049
e 1040 1050
e 1040 1051
e 1040 1052
e 1040 1053
e 1040 1054
e 1040 1055
e 1040 1056
e 1040 1057
e 1040 1058
e 1040 1059
e 1040 1060
e 1040 1061
e 1040 1062
e 1040 1063
e 1040 1064
e 1040 1065
e 1040 1066
e 1040 1067
e 1040 1068
e 1040 1069
e 1040 1070
e 1040 1071
e 1040 1072
e 1040 1073
e 1040 1074
e 1040 1075
e 1040 1076
e 1040 1077
e 1040 1078
e 1040 1079
e 1040 1080
e 1040 1081
e 1040 1082
e 1040 1083
e 1040 1084
e 1040 1085
e 1040 1086
e 1040 1087
e 1040 1088
e 1040 1089
e 1040 1090
e 1040 1091
e 1040 1092
e 1040 1093
e 1040 1094
e 1095 1096
e 1095 1097
e 1095 1098
e 1095 1099
e 1095 1100
e 1095 1101
e 1095 1102
e 1095 1103
e 1095 1104
e 1095 1105
e 1095 1106
e 1095 1107
e 1095 1108
e 1095 1109
e 1095 1110
e 1095 1111
e 1095 1112
e 1095 1113
e 1095 1114
e 1095 1115
e 1095 1116
e 1095 1117
e 1095 1118
e 1095 1119
e 1095 1120
e 1095 1121
e 1095 1122
e 1095 1123
e 1095 1124
e 1095 1125
e 1095 1126
e 1095 1127
e 1095 1128
e 1095 1129
e 1095 1130
e 1095 1131
e 1095 1132
e 1095 1133
e 1095 1134
e 1095 1135
e 1095 1136
e 1095 1137
e 1095 1138
e 1095 1139
e 1095 1140
e 1095 1141
e 1095 1142
e 1095 1143
e 1095 1144
e 1095 1145
e 1095 1146
e 1095 1147
e 1095 1148
e 1095 1149
e 1150 1151
e 1150 1152
e 1150 1153
e 1150 1154
e 1150 1155
e 1150 1156
e 1150 1157
e 1150 1158
e 1150 1159
e 1150 1160
e 1150 1161
e 1150 1162
e 1150 1163
e 1150 1164
e 1150 1165
e 1150 1166
e 1150 1167
e 1150 1168
e 1150 1169
e 1150 1170
e 1150 1171
e 1150 1172
e 1150 1173
e 1150 1174
e 1150 1175
e 1150 1176
e 1150 1177
e 1150 1178
e 1150 1179
e 1150 1180
e 1150 1181
e 1150 1182
e 1183 1184
e 1183 1185
e 1183 1186
e 1183 1187
e 1183 1188
e 1183 1189
e 1183 1190
e 1183 1191
e 1183 1192
e 1183 1193
e 1183 1194
e 1183 1195
e 1183 1196
e 1183 1197
e 1183 1198
e 1183 1199
e 1183 1200
e 1183 1201
e 1183 1202
e 1183 1203
e 1183 1204
e 1183 1205
e 1183 1206
e 1183 1207
e 1183 1208
e 1183 1209
e 1183 1210
e 1183 1211
e 1212 1213
e 1212 1214
e 1212 1215
e 1212 1216
e 1212 1217
e 1212 1218
e 1212 1219
e 1212 1220
e 1212 1221
e 1212 1222
e 1212 1223
e 1212 1224
e 1212 1225
e 1212 1226
e 1212 1227
e 1212 1228
e 1212 1229
e 1212 1230
e 1212 1231
e 1212 1232
e 1212 1233
e 1212 1234
e 1212 1235
e 1212 1236
e 1212 1237
e 1212 1238
e 1212 1239
e 1212 1240
e 1212 1241
e 1212 1242
e 1212 1243
e 1212 1244
e 1212 1245
e 1212 1246
e 1212 1247
e 1212 1248
e 1212 1249
e 1212 1250
e 1212 1251
e 1212 1252
e 1212 1253
e 1212 1254
e 1212 1255
e 1212 1256
e 1212 1257
e 1212 1258
e 1212 1259
e 1212 1260
e 1212 1261
e 1212 1262
e 1212 1263
e 1212 1264
e 1265 1266
e 1265 1267
e 1265 1268
e 1265 1269
e 1265 1270
e 1265 1271
e 1265 1272
e 1265 1273
e 1265 1274
e 1265 1275
e 1265 1276
e 1265 1277
e 1265 1278
e 1265 1279
e 1265 1280
e 1265 1281
e 1282 1283
e 1282 1284
e 1282 1285
e 1282 1286
e 1282 1287
e 1282 1288
e 1282 1289
e 1282 1290
e 1282 1291
e 1282 1292
e 1282 1293
e 1282 1294
e 1282 1295
e 1282 1296
e 1282 1297
e 1282 1298
e 1282 1299
e 1282 1300
e 1282 1301
e 1282 1302
e 1282 1303
e 1282 1304
e 1282 1305
e 1282 1306
e 1282 1307
e 1282 1308
e 1282 1309
e 1282 1310
e 1282 1311
e 1282 1312
e 1282 1313
e 1282 1314
e 1282 1315
e 1282 1316
e 1282 1317
e 1282 1318
e 1282 1319
e 1282 1320
e 1282 1321
e 1282 1322
e 1282 1323
e 1282 1324
e 1282 1325
e 1282 1326
e 1282 1327
e 1282 1328
e 1282 1329
e 1282 1330
e 1282 1331
e 1282 1332
e 1282 1333
e 1282 1334
e 1282 1335
e 1282 1336
e 1282 1337
e 1282 1338
e 1282 1339
e 1282 1340
e 1282 1341
e 1282 1342
e 1282 1343
e 1282 1344
e 1282 1345
e 1282 1346
e 1282 1347
e 1282 1348
e 1282 1349
e 1282 1350
e 1282 1351
e 1282 1352
e 1282 1353
e 1282 1354
e 1282 1355
e 1282 1356
e 1357 1358
e 1357 1359
e 1357 1360
e 1357 1361
e 1357 1362
e 1357 1363
e 1357 1364
e 1357 1365
e 1357 1366
e 1357 1367
e 1357 1368
e 1357 1369
e 1357 1370
e 1357 1371
e 1357 1372
e 1357 1373
e 1357 1374
e 1357 1375
e 1357 1376
e 1357 1377
e 1357 1378
e 1357 1379
e 1357 1380
e 1357 1381
e 1357 1382
e 1357 1383
e 1357 1384
e 1357 1385
e 1357 1386
e 1357 1387
e 1357 1388
e 1357 1389
e 1357 1390
e 1357 1391
e 1357 1392
e 1357 1393
e 1357 1394
e 1357 1395
e 1357 1396
e 1357 1397
e 1357 1398
e 1357 1399
e 1357 1400
e 1357 1401
e 1357 1402
e 1357 1403
e 1357 1404
e 1357 1405
e 1357 1406
e 1357 1407
e 1357 1408
e 1357 1409
e 1357 1410
e 1357 1411
e 1357 1412
e 1357 1413
e 1357 1414
e 1357 1415
e 1416 1417
e 1416 1418
e 1416 1419
e 1416 1420
e 1416 1421
e 1416 1422
e 1416 1423
e 1416 1424
e 1416 1425
e 1416 1426
e 1416 1427
e 1416 1428
e 1416 1429
e 1416 1430
e 1416 1431
e 1416 1432
e 1416 1433
e 1416 1434
e 1416 1435
e 1416 1436
e 1416 1437
e 1416 1438
e 1416 1439
e 1416 1440
e 1416 1441
e 1416 1442
e 1416 1443
e 1416 1444
e 1416 1445
e 1416 1446
e 1416 1447
e 1416 1448
e 1416 1449
e 1416 1450
e 1416 1451
e 1416 1452
e 1416 1453
e 1454 1455
e 1454 1456
e 1454 1457
e 1454 1458
e 1454 1459
e 1454 1460
e 1454 1461
e 1454 1462
e 1454 1463
e 1454 1464
e 1454 1465
e 1454 1466
e 1454 1467
e 1454 1468
e 1454 1469
e 1454 1470
e 1471 1472
e 1471 1473
e 1471 1474
e 1471 1475
e 1471 1476
e 1471 1477
e 1471 1478
e 1471 1479
e 1471 1480
e 1471 1481
e 1471 1482
e 1471 1483
e 1471 1484
e 1471 1485
e 1471 1486
e 1471 1487
e 1471 1488
e 1471 1489
e 1471 1490
e 1471 1491
e 1471 1492
e 1471 1493
e 1471 1494
e 1471 1495
e 1471 1496
e 1471 1497
e 1471 1498
e 1471 1499
e 1471 1500
e 1471 1501
e 1471 1502
e 1471 1503
e 1471 1504
e 1471 1505
e 1471 1506
e 1471 1507
e 1471 1508
e 1471 1509
e 1471 1510
e 1471 1511
e 1471 1512
e 1471 1513
e 1471 1514
e 1471 1515
e 1471 1516
e 1471 1517
e 1471 1518
e 1471 1519
e 1471 1520
e 1471 1521
e 1471 1522
e 1471 1523
e 1471 1524
e 1471 1525
e 1471 1526
e 1471 1527
e 1471 1528
e 1471 1529
e 1471 1530
e 1471 1531
e 1532 1533
e 1532 1534
e 1532 1535
e 1532 1536
e 1532 1537
e 1532 1538
e 1532 1539
e 1532 1540
e 1532 1541
e 1532 1542
e 1532 1543
e 1532 1544
e 1532 1545
e 1532 1546
e 1532 1547
e 1532 1548
e 1532 1549
e 1532 1550
e 1532 1551
e 1532 1552
e 1532 1553
e 1532 1554
e 1532 1555
e 1532 1556
e 1532 1557
e 1532 1558
e 1532 1559
e 1532 1560
e 1532 1561
e 1532 1562
e 1532 1563
e 1532 1564
e 1532 1565
e 1532 1566
e 1532 1567
e 1532 1568
e 1532 1569
e 1532 1570
e 1532 1571
e 1532 1572
e 1532 1573
e 1532 1574
e 1532 1575
e 1532 1576
e 1532 1577
e 1532 1578
e 1532 1579
e 1532 1580
e 1532 1581
e 1532 1582
e 1532 1583
e 1532 1584
e 1532 1585
e 1532 1586
e 1532 1587
e 1532 1588
e 1532 1589
e 1532 1590
e 1532 1591
e 1532 1592
e 1532 1593
e 1532 1594
e 1532 1595
e 1596 1597
e 1596 1598
e 1596 1599
e 1596 1600
e 1596 1601
e 1596 1602
e 1596 1603
e 1596 1604
e 1596 1605
e 1596 1606
e 1596 1607
e 1596 1608
e 1596 1609
e 1596 1610
e 1596 1611
e 1596 1612
e 1596 1613
e 1596 1614
e 1615 1616
e 1615 1617
e 1615 1618
e 1615 1619
e 1615 1620
e 1615 1621
e 1615 1622
e 1615 1623
e 1615 1624
e 1615 1625
e 1615 1626
e 1615 1627
e 1615 1628
e 1615 1629
e 1615 1630
e 1615 1631
e 1615 1632
e 1615 1633
e 1615 1634
e 1615 1635
e 1615 1636
e 1615 1637
e 1615 1638
e 1615 1639
e 1615 1640
e 1615 1641
e 1615 1642
e 1615 1643
e 1615 1644
e 1615 1645
e 1615 1646
e 1647 1648
e 1647 1649
e 1647 1650
e 1647 1651
e 1647 1652
e 1647 1653
e 1647 1654
e 1647 1655
e 1647 1656
e 1647 1657
e 1647 1658
e 1647 1659
e 1647 1660
e 1647 1661
e 1647 1662
e 1647 1663
e 1647 1664
e 1647 1665
e 1647 1666
e 1647 1667
e 1647 1668
e 1647 1669
e 1647 1670
e 1647 1671
e 1647 1672
e 1647 1673
e 1647 1674
e 1647 1675
e 1647 1676
e 1647 1677
e 1647 1678
e 1647 1679
e 1680 1681
e 1680 1682
e 1680 1683
e 1680 1684
e 1680 1685
e 1680 1686
e 1680 1687
e 1680 1688
e 1680 1689
e 1680 1690
e 1680 1691
e 1680 1692
e 1680 1693
e 1680 1694
e 1680 1695
e 1680 1696
e 1680 1697
e 1680 1698
e 1680 1699
e 1680 1700
e 1680 1701
e 1680 1702
e 1680 1703
e 1680 1704
e 1680 1705
e 1680 1706
e 1680 1707
e 1680 1708
e 1680 1709
e 1680 1710
e 1680 1711
e 1680 1712
e 1680 1713
e 1680 1714
e 1680 1715
e 1680 1716
e 1680 1717
e 1680 1718
e 1680 1719
e 1680 1720
e 1680 1721
e 1680 1722
e 1680 1723
e 1680 1724
e 1680 1725
e 1680 1726
e 1680 1727
e 1680 1728
e 1680 1729
e 1680 1730
e 1680 1731
e 1680 1732
e 1680 1733
e 1734 1735
e 1734 1736
e 1734 1737
e 1734 1738
e 1734 1739
e 1734 1740
e 1734 1741
e 1734 1742
e 1734 1743
e 1734 1744
e 1734 1745
e 1734 1746
e 1747 1748
e 1747 1749
e 1747 1750
e 1747 1751
e 1747 1752
e 1747 1753
e 1747 1754
e 1747 1755
e 1747 1756
e 1747 1757
e 1747 1758
e 1759 1760
e 1759 1761
e 1759 1762
e 1759 1763
e 1759 1764
e 1759 1765
e 1759 1766
e 1759 1767
e 1759 1768
e 1759 1769
e 1759 1770
e 1759 1771
e 1759 1772
e 1759 1773
e 1759 1774
e 1759 1775
e 1759 1776
e 1759 1777
e 1759 1778
e 1759 1779
e 1759 1780
e 1759 1781
e 1759 1782
e 1759 1783
e 1759 1784
e 1759 1785
e 1759 1786
e 1759 1787
e 1759 1788
e 1759 1789
e 1759 1790
e 1759 1791
e 1759 1792
e 1759 1793
e 1759 1794
e 1759 1795
e 1759 1796
e 1759 1797
e 1759 1798
e 1759 1799
e 1759 1800
e 1759 1801
e 1759 1802
e 1759 1803
e 1759 1804
e 1759 1805
e 1759 1806
e 1759 1807
e 1808 1809
e 1808 1810
e 1808 1811
e 1808 1812
e 1808 1813
e 1808 1814
e 1808 1815
e 1808 1816
e 1808 1817
e 1808 1818
e 1808 1819
e 1808 1820
e 1808 1821
e 1808 1822
e 1808 1823
e 1808 1824
e 1808 1825
e 1808 1826
e 1827 1828
e 1827 1829
e 1827 1830
e 1827 1831
e 1827 1832
e 1827 1833
e 1827 1834
e 1827 1835
e 1827 1836
e 1827 1837
e 1827 1838
e 1827 1839
e 1827 1840
e 1827 1841
e 1827 1842
e 1827 1843
e 1827 1844
e 1827 1845
e 1827 1846
e 1847 1848
e 1847 1849
e 1847 1850
e 1847 1851
e 1847 1852
e 1847 1853
e 1847 1854
e 1847 1855
e 1847 1856
e 1847 1857
e 1847 1858
e 1847 1859
e 1847 1860
e 1847 1861
e 1847 1862
e 1847 1863
e 1847 1864
e 1847 1865
e 1847 1866
e 1847 1867
e 1847 1868
e 1847 1869
e 1847 1870
e 1847 1871
e 1847 1872
e 1847 1873
e 1847 1874
e 1847 1875
e 1847 1876
e 1847 1877
e 1847 1878
e 1847 1879
e 1847 1880
e 1847 1881
e 1847 1882
e 1847 1883
e 1847 1884
e 1847 1885
e 1847 1886
e 1847 1887
e 1847 1888
e 1847 1889
e 1847 1890
e 1847 1891
e 1847 1892
e 1847 1893
e 1847 1894
e 1847 1895
e 1847 1896
e 1847 1897
e 1847 1898
e 1847 1899
e 1847 1900
e 1847 1901
e 1847 1902
e 1847 1903
e 1847 1904
e 1847 1905
e 1847 1906
e 1907 1908
e 1907 1909
e 1907 1910
e 1907 1911
e 1907 1912
e 1907 1913
e 1907 1914
e 1907 1915
e 1907 1916
e 1907 1917
e 1907 1918
e 1907 1919
e 1907 1920
e 1907 1921
e 1907 1922
e 1907 1923
e 1907 1924
e 1907 1925
e 1907 1926
e 1907 1927
e 1907 1928
e 1907 1929
e 1907 1930
e 1907 1931
e 1907 1932
e 1907 1933
e 1907 1934
e 1907 1935
e 1907 1936
e 1907 1937
e 1907 1938
e 1907 1939
e 1907 1940
e 1907 1941
e 1907 1942
e 1907 1943
e 1907 1944
e 1907 1945
e 1907 1946
e 1907 1947
e 1948 1949
e 1948 1950
e 1948 1951
e 1948 1952
e 1948 1953
e 1948 1954
e 1948 1955
e 1948 1956
e 1948 1957
e 1948 1958
e 1948 1959
e 1948 1960
e 1948 1961
e 1948 1962
e 1948 1963
e 1948 1964
e 1948 1965
e 1948 1966
e 1948 1967
e 1948 1968
e 1948 1969
e 1948 1970
e 1948 1971
e 1948 1972
e 1948 1973
e 1948 1974
e 1948 1975
e 1948 1976
e 1948 1977
e 1948 1978
e 1948 1979
e 1948 1980
e 1948 1981
e 1948 1982
e 1948 1983
e 1948 1984
e 1948 1985
e 1948 1986
e 1948 1987
e 1948 1988
e 1948 1989
e 1948 1990
e 1948 1991
e 1948 1992
e 1948 1993
e 1948 1994
e 1948 1995
e 1948 1996
e 1948 1997
e 1948 1998
e 1948 1999
e 1948 2000
e 1948 2001
e 1948 2002
e 1948 2003
e 1948 2004
e 1948 2005
e 1948 2006
e 1948 2007
e 1948 2008
e 1948 2009
e 1948 2010
e 1948 2011
e 1948 2012
e 1948 2013
e 2014 2015
e 2014 2016
e 2014 2017
e 2014 2018
e 2014 2019
e 2014 2020
e 2014 2021
e 2014 2022
e 2014 2023
e 2014 2024
e 2014 2025
e 2014 2026
e 2014 2027
e 2014 2028
e 2014 2029
e 2014 2030
e 2014 2031
e 2014 2032
e 2014 2033
e 2014 2034
e 2014 2035
e 2014 2036
e 2014 2037
e 2014 2038
e 2014 2039
e 2014 2040
e 2014 2041
e 2014 2042
e 2014 2043
e 2014 2044
e 2014 2045
e 2014 2046
e 2014 2047
e 2014 2048
e 2014 2049
e 2014 2050
e 2014 2051
e 2014 2052
e 2014 2053
e 2014 2054
e 2014 2055
e 2014 2056
e 2014 2057
e 2014 2058
e 2014 2059
e 2014 2060
e 2014 2061
e 2014 2062
e 2014 2063
e 2014 2064
e 2014 2065
e 2014 2066
e 2014 2067
e 2014 2068
e 2014 2069
e 2014 2070
e 2014 2071
e 2014 2072
e 2014 2073
e 2014 2074
e 2014 2075
e 2014 2076
e 2014 2077
e 2014 2078
e 2014 2079
e 2014 2080
e 2081 2082
e 2081 2083
e 2081 2084
e 2081 2085
e 2081 2086
e 2081 2087
e 2081 2088
e 2081 2089
e 2081 2090
e 2081 2091
e 2081 2092
e 2081 2093
e 2081 2094
e 2081 2095
e 2081 2096
e 2081 2097
e 2081 2098
e 2081 2099
e 2081 2100
e 2081 2101
e 2081 2102
e 2081 2103
e 2081 2104
e 2081 2105
e 2081 2106
e 2081 2107
e 2081 2108
e 2081 2109
e 2081 2110
e 2081 2111
e 2081 2112
e 2081 2113
e 2081 2114
e 2081 2115
e 2081 2116
e 2081 2117
e 2081 2118
e 2081 2119
e 2081 2120
e 2081 2121
e 2081 2122
e 2081 2123
e 2081 2124
e 2081 2125
e 2081 2126
e 2081 2127
e 2081 2128
e 2081 2129
e 2081 2130
e 2081 2131
e 2132 2133
e 2132 2134
e 2132 2135
e 2132 2136
e 2132 2137
e 2132 2138
e 2132 2139
e 2132 2140
e 2132 2141
e 2132 2142
e 2132 2143
e 2132 2144
e 2132 2145
e 2132 2146
e 2132 2147
e 2132 2148
e 2132 2149
e 2132 2150
e 2132 2151
e 2132 2152
e 2132 2153
e 2132 2154
e 2132 2155
e 2132 2156
e 2132 2157
e 2132 2158
e 2132 2159
e 2132 2160
e 2132 2161
e 2132 2162
e 2132 2163
e 2132 2164
e 2132 2165
e 2132 2166
e 2132 2167
e 2132 2168
e 2132 2169
e 2132 2170
e 2171 2172
e 2171 2173
e 2171 2174
e 2171 2175
e 2171 2176
e 2171 2177
e 2171 2178
e 2171 2179
e 2171 2180
e 2171 2181
e 2171 2182
e 2171 2183
e 2171 2184
e 2171 2185
e 2171 2186
e 2171 2187
e 2171 2188
e 2171 2189
e 2171 2190
e 2171 2191
e 2171 2192
e 2171 2193
e 2171 2194
e 2171 2195
e 2171 2196
e 2171 2197
e 2171 2198
e 2171 2199
e 2171 2200
e 2171 2201
e 2171 2202
e 2171 2203
e 2171 2204
e 2171 2205
e 2171 2206
e 2171 2207
e 2171 2208
e 2171 2209
e 2171 2210
e 2171 2211
e 2171 2212
e 2171 2213
e 2171 2214
e 2171 2215
e 2171 2216
e 2171 2217
e 2171 2218
e 2171 2219
e 2171 2220
e 2171 2221
e 2171 2222
e 2171 2223
e 2171 2224
e 2171 2225
e 2171 2226
e 2171 2227
e 2171 2228
e 2171 2229
e 2171 2230
e 2171 2231
e 2171 2232
e 2171 2233
e 2171 2234
e 2171 2235
e 2171 2236
e 2171 2237
e 2171 2238
e 2171 2239
e 2171 2240
e 2241 2242
e 2241 2243
e 2241 2244
e 2241 2245
e 2241 2246
e 2241 2247
e 2241 2248
e 2241 2249
e 2241 2250
e 2241 2251
e 2241 2252
e 2241 2253
e 2241 2254
e 2241 2255
e 2241 2256
e 2241 2257
e 2241 2258
e 2241 2259
e 2241 2260
e 2241 2261
e 2241 2262
e 2241 2263
e 2241 2264
e 2241 2265
e 2241 2266
e 2241 2267
e 2241 2268
e 2241 2269
e 2241 2270
e 2241 2271
e 2241 2272
e 2241 2273
e 2241 2274
e 2241 2275
e 2241 2276
e 2241 2277
e 2241 2278
e 2241 2279
e 2241 2280
e 2241 2281
e 2241 2282
e 2241 2283
e 2241 2284
e 2241 2285
e 2286 2287
e 2286 2288
e 2286 2289
e 2286 2290
e 2286 2291
e 2286 2292
e 2286 2293
e 2286 2294
e 2286 2295
e 2286 2296
e 2286 2297
e 2286 2298
e 2286 2299
e 2286 2300
e 2286 2301
e 2286 2302
e 2286 2303
e 2286 2304
e 2286 2305
e 2286 2306
e 2286 2307
e 2286 2308
e 2286 2309
e 2286 2310
e 2286 2311
e 2286 2312
e 2286 2313
e 2286 2314
e 2286 2315
e 2286 2316
e 2286 2317
e 2286 2318
e 2286 2319
e 2286 2320
e 2286 2321
e 2286 2322
e 2286 2323
e 2286 2324
e 2286 2325
e 2286 2326
e 2286 2327
e 2286 2328
e 2286 2329
e 2286 2330
e 2286 2331
e 2286 2332
e 2286 2333
e 2286 2334
e 2286 2335
e 2286 2336
e 2286 2337
e 2286 2338
e 2286 2339
e 2286 2340
e 2286 2341
e 2286 2342
e 2286 2343
e 2286 2344
e 2286 2345
e 2346 2347
e 2346 2348
e 2346 2349
e 2346 2350
e 2346 2351
e 2346 2352
e 2346 2353
e 2346 2354
e 2346 2355
e 2346 2356
e 2346 2357
e 2346 2358
e 2346 2359
e 2346 2360
e 2346 2361
e 2346 2362
e 2346 2363
e 2346 2364
e 2346 2365
e 2346 2366
e 2346 2367
e 2346 2368
e 2346 2369
e 2346 2370
e 2346 2371
e 2346 2372
e 2346 2373
e 2346 2374
e 2346 2375
e 2346 2376
e 2346 2377
e 2346 2378
e 2346 2379
e 2346 2380
e 2346 2381
e 2346 2382
e 2346 2383
e 2346 2384
e 2346 2385
e 2346 2386
e 2346 2387
e 2346 2388
e 2346 2389
e 2346 2390
e 2346 2391
e 2346 2392
e 2346 2393
e 2346 2394
e 2346 2395
e 2346 2396
e 2346 2397
e 2346 2398
e 2346 2399
e 2346 2400
e 2346 2401
e 2346 2402
e 2346 2403
e 2346 2404
e 2346 2405
e 2346 2406
e 2346 2407
e 2346 2408
e 2346 2409
e 2346 2410
e 2346 2411
e 2346 2412
e 2413 2414
e 2413 2415
e 2413 2416
e 2413 2417
e 2413 2418
e 2413 2419
e 2413 2420
e 2413 2421
e 2413 2422
e 2413 2423
e 2413 2424
e 2413 2425
e 2413 2426
e 2413 2427
e 2413 2428
e 2413 2429
e 2413 2430
e 2413 2431
e 2413 2432
e 2413 2433
e 2413 2434
e 2413 2435
e 2413 2436
e 2413 2437
e 2413 2438
e 2413 2439
e 2413 2440
e 2413 2441
e 2413 2442
e 2413 2443
e 2413 2444
e 2413 2445
e 2413 2446
e 2413 2447
e 2413 2448
e 2413 2449
e 2413 2450
e 2413 2451
e 2413 2452
e 2453 2454
e 2453 2455
e 2453 2456
e 2453 2457
e 2453 2458
e 2453 2459
e 2453 2460
e 2453 2461
e 2453 2462
e 2453 2463
e 2453 2464
e 2453 2465
e 2453 2466
e 2453 2467
e 2453 2468
e 2453 2469
e 2453 2470
e 2453 2471
e 2453 2472
e 2453 2473
e 2453 2474
e 2453 2475
e 2453 2476
e 2453 2477
e 2453 2478
e 2453 2479
e 2453 2480
e 2453 2481
e 2453 2482
e 2453 2483
e 2453 2484
e 2453 2485
e 2453 2486
e 2453 2487
e 2453 2488
e 2453 2489
e 2453 2490
e 2453 2491
e 2453 2492
e 2453 2493
e 2453 2494
e 2453 2495
e 2453 2496
e 2453 2497
e 2453 2498
e 2453 2499
e 2500 2501
e 2500 2502
e 2500 2503
e 2500 2504
e 2500 2505
e 2500 2506
e 2500 2507
e 2500 2508
e 2500 2509
e 2500 2510
e 2500 2511
e 2500 2512
e 2500 2513
e 2500 2514
e 2500 2515
e 2500 2516
e 2500 2517
e 2500 2518
e 2500 2519
e 2500 2520
e 2500 2521
e 2500 2522
e 2500 2523
e 2500 2524
e 2500 2525
e 2500 2526
e 2500 2527
e 2500 2528
e 2500 2529
e 2500 2530
e 2500 2531
e 2500 2532
e 2500 2533
e 2500 2534
e 2500 2535
e 2500 2536
e 2500 2537
e 2500 2538
e 2500 2539
e 2500 2540
e 2500 2541
e 2500 2542
e 2500 2543
e 2500 2544
e 2500 2545
e 2500 2546
e 2500 2547
e 2500 2548
e 2500 2549
e 2500 2550
e 2500 2551
e 2500 2552
e 2500 2553
e 2500 2554
e 2500 2555
e 2500 2556
e 2557 2558
e 2557 2559
e 2557 2560
e 2557 2561
e 2557 2562
e 2557 2563
e 2557 2564
e 2557 2565
e 2557 2566
e 2557 2567
e 2557 2568
e 2557 2569
e 2557 2570
e 2557 2571
e 2557 2572
e 2557 2573
e 2557 2574
e 2557 2575
e 2557 2576
e 2557 2577
e 2557 2578
e 2557 2579
e 2557 2580
e 2557 2581
e 2557 2582
e 2557 2583
e 2557 2584
e 2557 2585
e 2557 2586
e 2557 2587
e 2557 2588
e 2557 2589
e 2557 2590
e 2557 2591
e 2557 2592
e 2557 2593
e 2557 2594
e 2557 2595
e 2557 2596
e 2557 2597
e 2557 2598
e 2557 2599
e 2557 2600
e 2557 2601
e 2557 2602
e 2557 2603
e 2557 2604
e 2557 2605
e 2557 2606
e 2557 2607
e 2557 2608
e 2557 2609
e 2557 2610
e 2557 2611
e 2557 2612
e 2557 2613
e 2557 2614
e 2557 2615
e 2557 2616
e 2557 2617
e 2557 2618
e 2557 2619
e 2557 2620
e 2557 2621
e 2622 2623
e 2622 2624
e 2622 2625
e 2622 2626
e 2622 2627
e 2622 2628
e 2622 2629
e 2622 2630
e 2622 2631
e 2622 2632
e 2622 2633
e 2622 2634
e 2622 2635
e 2622 2636
e 2622 2637
e 2622 2638
e 2622 2639
e 2622 2640
e 2622 2641
e 2622 2642
e 2622 2643
e 2622 2644
e 2622 2645
e 2622 2646
e 2622 2647
e 2622 2648
e 2622 2649
e 2622 2650
e 2622 2651
e 2622 2652
e 2622 2653
e 2622 2654
e 2622 2655
e 2622 2656
e 2622 2657
e 2622 2658
e 2622 2659
e 2622 2660
e 2622 2661
e 2622 2662
e 2622 2663
e 2622 2664
e 2622 2665
e 2622 2666
e 2622 2667
e 2622 2668
e 2622 2669
e 2622 2670
e 2622 2671
e 2622 2672
e 2673 2674
e 2673 2675
e 2673 2676
e 2673 2677
e 2673 2678
e 2673 2679
e 2673 2680
e 2673 2681
e 2673 2682
e 2673 2683
e 2673 2684
e 2673 2685
e 2673 2686
e 2673 2687
e 2673 2688
e 2673 2689
e 2673 2690
e 2673 2691
e 2673 2692
e 2673 2693
e 2673 2694
e 2673 2695
e 2673 2696
e 2673 2697
e 2673 2698
e 2673 2699
e 2673 2700
e 2673 2701
e 2673 2702
e 2673 2703
e 2673 2704
e 2673 2705
e 2673 2706
e 2673 2707
e 2673 2708
e 2673 2709
e 2710 2711
e 2710 2712
e 2710 2713
e 2710 2714
e 2710 2715
e 2710 2716
e 2710 2717
e 2710 2718
e 2710 2719
e 2710 2720
e 2710 2721
e 2710 2722
e 2710 2723
e 2710 2724
e 2710 2725
e 2710 2726
e 2710 2727
e 2710 2728
e 2710 2729
e 2710 2730
e 2710 2731
e 2710 2732
e 2710 2733
e 2710 2734
e 2710 2735
e 2710 2736
e 2710 2737
e 2710 2738
e 2710 2739
e 2710 2740
e 2710 2741
e 2710 2742
e 2710 2743
e 2710 2744
e 2710 2745
e 2710 2746
e 2710 2747
e 2710 2748
e 2710 2749
e 2710 2750
e 2710 2751
e 2710 2752
e 2710 2753
e 2710 2754
e 2710 2755
e 2710 2756
e 2710 2757
e 2710 2758
e 2710 2759
e 2760 2761
e 2760 2762
e 2760 2763
e 2760 2764
e 2760 2765
e 2760 2766
e 2760 2767
e 2760 2768
e 2760 2769
e 2760 2770
e 2760 2771
e 2760 2772
e 2760 2773
e 2760 2774
e 2760 2775
e 2760 2776
e 2760 2777
e 2760 2778
e 2760 2779
e 2760 2780
e 2760 2781
e 2760 2782
e 2760 2783
e 2760 2784
e 2760 2785
e 2760 2786
e 2760 2787
e 2760 2788
e 2760 2789
e 2760 2790
e 2760 2791
e 2760 2792
e 2760 2793
e 2760 2794
e 2760 2795
e 2760 2796
e 2760 2797
e 2760 2798
e 2760 2799
e 2760 2800
e 2760 2801
e 2760 2802
e 2760 2803
e 2760 2804
e 2760 2805
e 2760 2806
e 2760 2807
e 2760 2808
e 2760 2809
e 2760 2810
e 2760 2811
e 2760 2812
e 2760 2813
e 2814 2815
e 2814 2816
e 2814 2817
e 2814 2818
e 2814 2819
e 2814 2820
e 2814 2821
e 2814 2822
e 2814 2823
e 2814 2824
e 2814 2825
e 2814 2826
e 2814 2827
e 2828 2829
e 2828 2830
e 2828 2831
e 2828 2832
e 2828 2833
e 2828 2834
e 2828 2835
e 2828 2836
e 2828 2837
e 2828 2838
e 2828 2839
e 2828 2840
e 2828 2841
e 2828 2842
e 2828 2843
e 2828 2844
e 2828 2845
e 2828 2846
e 2828 2847
e 2828 2848
e 2828 2849
e 2828 2850
e 2828 2851
e 2828 2852
e 2828 2853
e 2828 2854
e 2828 2855
e 2828 2856
e 2828 2857
e 2828 2858
e 2828 2859
e 2860 2861
e 2860 2862
e 2860 2863
e 2860 2864
e 2860 2865
e 2860 2866
e 2860 2867
e 2860 2868
e 2860 2869
e 2860 2870
e 2860 2871
e 2860 2872
e 2860 2873
e 2860 2874
e 2875 2876
e 2875 2877
e 2875 2878
e 2875 2879
e 2875 2880
e 2875 2881
e 2875 2882
e 2875 2883
e 2875 2884
e 2875 2885
e 2875 2886
e 2875 2887
e 2875 2888
e 2875 2889
e 2875 2890
e 2875 2891
e 2875 2892
e 2875 2893
e 2875 2894
e 2875 2895
e 2875 2896
e 2875 2897
e 2875 2898
e 2875 2899
e 2875 2900
e 2875 2901
e 2875 2902
e 2875 2903
e 2875 2904
e 2875 2905
e 2875 2906
e 2875 2907
e 2875 2908
e 2875 2909
e 2875 2910
e 2875 2911
e 2875 2912
e 2875 2913
e 2875 2914
e 2875 2915
e 2875 2916
e 2875 2917
e 2875 2918
e 2875 2919
e 2875 2920
e 2875 2921
e 2875 2922
e 2875 2923
e 2875 2924
e 2875 2925
e 2875 2926
e 2875 2927
e 2875 2928
e 2875 2929
e 2875 2930
e 2875 2931
e 2875 2932
e 2875 2933
e 2875 2934
e 2875 2935
e 2875 2936
e 2875 2937
e 2875 2938
e 2875 2939
e 2875 2940
e 2875 2941
e 2875 2942
e 2875 2943
e 2875 2944
e 2875 2945
e 2875 2946
e 2875 2947
e 2948 2949
e 2948 2950
e 2948 2951
e 2948 2952
e 2948 2953
e 2948 2954
e 2948 2955
e 2948 2956
e 2948 2957
e 2948 2958
e 2948 2959
e 2948 2960
e 2948 2961
e 2948 2962
e 2948 2963
e 2948 2964
e 2948 2965
e 2948 2966
e 2948 2967
e 2948 2968
e 2948 2969
e 2948 2970
e 2948 2971
e 2948 2972
e 2948 2973
e 2948 2974
e 2948 2975
e 2948 2976
e 2948 2977
e 2948 2978
e 2948 2979
e 2948 2980
e 2948 2981
e 2948 2982
e 2948 2983
e 2948 2984
e 2948 2985
e 2948 2986
e 2948 2987
e 2948 2988
e 2948 2989
e 2948 2990
e 2948 2991
e 2948 2992
e 2948 2993
e 2948 2994
e 2948 2995
e 2948 2996
e 2948 2997
e 2948 2998
e 2948 2999
e 2948 3000
e 2948 3001
e 2948 3002
e 2948 3003
e 2948 3004
e 2948 3005
e 2948 3006
e 2948 3007
e 2948 3008
e 2948 3009
e 2948 3010
e 2948 3011
e 2948 3012
e 2948 3013
e 2948 3014
e 2948 3015
e 2948 3016
e 2948 3017
e 2948 3018
e 2948 3019
e 2948 3020
e 2948 3021
e 2948 3022
e 2948 3023
e 2948 3024
e 3025 3026
e 3025 3027
e 3025 3028
e 3025 3029
e 3025 3030
e 3025 3031
e 3025 3032
e 3025 3033
e 3025 3034
e 3025 3035
e 3025 3036
e 3025 3037
e 3025 3038
e 3025 3039
e 3025 3040
e 3025 3041
e 3025 3042
e 3025 3043
e 3025 3044
e 3025 3045
e 3025 3046
e 3025 3047
e 3025 3048
e 3025 3049
e 3025 3050
e 3025 3051
e 3025 3052
e 3025 3053
e 3054 3055
e 3054 3056
e 3054 3057
e 3054 3058
e 3054 3059
e 3054 3060
e 3054 3061
e 3054 3062
e 3054 3063
e 3054 3064
e 3054 3065
e 3054 3066
e 3054 3067
e 3054 3068
e 3069 3070
e 3069 3071
e 3069 3072
e 3069 3073
e 3069 3074
e 3069 3075
e 3069 3076
e 3069 3077
e 3069 3078
e 3069 3079
e 3069 3080
e 3069 3081
e 3069 3082
e 3069 3083
e 3069 3084
e 3069 3085
e 3069 3086
e 3069 3087
e 3069 3088
e 3069 3089
e 3069 3090
e 3069 3091
e 3069 3092
e 3069 3093
e 3069 3094
e 3069 3095
e 3069 3096
e 3069 3097
e 3069 3098
e 3069 3099
e 3069 3100
e 3069 3101
e 3069 3102
e 3069 3103
e 3069 3104
e 3069 3105
e 3069 3106
e 3069 3107
e 3069 3108
e 3069 3109
e 3069 3110
e 3069 3111
e 3069 3112
e 3069 3113
e 3069 3114
e 3069 3115
e 3069 3116
e 3069 3117
e 3069 3118
e 3069 3119
e 3069 3120
e 3069 3121
e 3069 3122
e 3069 3123
e 3069 3124
e 3069 3125
e 3069 3126
e 3069 3127
e 3069 3128
e 3069 3129
e 3069 3130
e 3069 3131
e 3069 3132
e 3069 3133
e 3069 3134
e 3069 3135
e 3069 3136
e 3069 3137
e 3069 3138
e 3069 3139
e 3069 3140
e 3069 3141
e 3142 3143
e 3142 3144
e 3142 3145
e 3142 3146
e 3142 3147
e 3142 3148
e 3142 3149
e 3142 3150
e 3142 3151
e 3142 3152
e 3142 3153
e 3142 3154
e 3142 3155
e 3142 3156
e 3142 3157
e 3142 3158
e 3142 3159
e 3142 3160
e 3142 3161
e 3142 3162
e 3142 3163
e 3142 3164
e 3142 3165
e 3142 3166
e 3142 3167
e 3142 3168
e 3142 3169
e 3142 3170
e 3142 3171
e 3142 3172
e 3142 3173
e 3142 3174
e 3142 3175
e 3142 3176
e 3142 3177
e 3142 3178
e 3142 3179
e 3142 3180
e 3142 3181
e 3142 3182
e 3142 3183
e 3142 3184
e 3142 3185
e 3142 3186
e 3142 3187
e 3142 3188
e 3142 3189
e 3142 3190
e 3142 3191
e 3142 3192
e 3142 3193
e 3142 3194
e 3142 3195
e 3196 3197
e 3196 3198
e 3196 3199
e 3196 3200
e 3196 3201
e 3196 3202
e 3196 3203
e 3196 3204
e 3196 3205
e 3196 3206
e 3196 3207
e 3196 3208
e 3196 3209
e 3196 3210
e 3196 3211
e 3196 3212
e 3196 3213
e 3196 3214
e 3196 3215
e 3196 3216
e 3196 3217
e 3196 3218
e 3196 3219
e 3196 3220
e 3196 3221
e 3196 3222
e 3196 3223
e 3196 3224
e 3196 3225
e 3196 3226
e 3196 3227
e 3196 3228
e 3196 3229
e 3196 3230
e 3196 3231
e 3196 3232
e 3196 3233
e 3196 3234
e 3196 3235
e 3196 3236
e 3196 3237
e 3196 3238
e 3196 3239
e 3240 3241
e 3240 3242
e 3240 3243
e 3240 3244
e 3240 3245
e 3240 3246
e 3240 3247
e 3240 3248
e 3240 3249
e 3240 3250
e 3240 3251
e 3240 3252
e 3240 3253
e 3240 3254
e 3240 3255
e 3240 3256
e 3240 3257
e 3240 3258
e 3240 3259
e 3240 3260
e 3240 3261
e 3262 3263
e 3262 3264
e 3262 3265
e 3262 3266
e 3262 3267
e 3262 3268
e 3262 3269
e 3262 3270
e 3262 3271
e 3262 3272
e 3262 3273
e 3262 3274
e 3275 3276
e 3275 3277
e 3275 3278
e 3275 3279
e 3275 3280
e 3275 3281
e 3275 3282
e 3275 3283
e 3275 3284
e 3275 3285
e 3275 3286
e 3275 3287
e 3275 3288
e 3275 3289
e 3275 3290
e 3275 3291
e 3275 3292
e 3275 3293
e 3275 3294
e 3275 3295
e 3275 3296
e 3275 3297
e 3275 3298
e 3275 3299
e 3275 3300
e 3275 3301
e 3275 3302
e 3275 3303
e 3275 3304
e 3275 3305
e 3275 3306
e 3275 3307
e 3275 3308
e 3275 3309
e 3275 3310
e 3275 3311
e 3275 3312
e 3275 3313
e 3275 3314
e 3275 3315
e 3275 3316
e 3275 3317
e 3275 3318
e 3275 3319
e 3275 3320
e 3275 3321
e 3275 3322
e 3275 3323
e 3275 3324
e 3275 3325
e 3275 3326
e 3275 3327
e 3275 3328
e 3275 3329
e 3275 3330
e 3275 3331
e 3275 3332
e 3275 3333
e 3275 3334
e 3275 3335
e 3275 3336
e 3275 3337
e 3275 3338
e 3275 3339
e 3275 3340
e 3275 3341
e 3275 3342
e 3275 3343
e 3344 3345
e 3344 3346
e 3344 3347
e 3344 3348
e 3344 3349
e 3344 3350
e 3344 3351
e 3344 3352
e 3344 3353
e 3344 3354
e 3344 3355
e 3344 3356
e 3344 3357
e 3344 3358
e 3344 3359
e 3344 3360
e 3344 3361
e 3344 3362
e 3344 3363
e 3344 3364
e 3344 3365
e 3344 3366
e 3344 3367
e 3344 3368
e 3344 3369
e 3344 3370
e 3344 3371
e 3344 3372
e 3344 3373
e 3344 3374
e 3344 3375
e 3344 3376
e 3344 3377
e 3344 3378
e 3344 3379
e 3344 3380
e 3344 3381
e 3344 3382
e 3344 3383
e 3344 3384
e 3344 3385
e 3344 3386
e 3344 3387
e 3344 3388
e 3344 3389
e 3344 3390
e 3344 3391
e 3344 3392
